! B3LYP 6-31G(d) Opt TightSCF
%pal
   nprocs 16
end

* xyz 0 1
C   -4.943849   1.228782   1.340222
N   -4.421667   0.563170   0.136680
C   -3.282938   1.331920  -0.419841
C   -2.452047   0.486390  -1.392224
C   -1.832837  -0.753502  -0.690081
C   -0.341627  -0.543064  -0.340607
C    0.571797  -0.659888  -1.569128
N    1.964358  -0.447837  -1.184055
C    2.824681  -1.403628  -0.558224
O    2.588708  -2.639563  -0.501185
C    3.981839  -0.731648   0.021972
C    5.076566  -1.241086   0.718075
C    6.044738  -0.332201   1.181582
C    5.897458   1.052371   0.946467
C    4.780564   1.541721   0.245508
C    3.838057   0.620413  -0.207664
C    2.588830   0.814380  -0.934911
O    2.102647   1.925281  -1.275565
C   -2.624853  -1.141346   0.580793
C   -4.124059  -0.869994   0.396838
H   -5.167465   2.296300   1.125039
H   -4.211861   1.170837   2.176206
H   -5.896113   0.750935   1.655591
H   -3.677884   2.215771  -0.966058
H   -2.612910   1.705094   0.388947
H   -1.674828   1.131709  -1.852406
H   -3.117857   0.145887  -2.215721
H   -1.906174  -1.613118  -1.394514
H   -0.021864  -1.316921   0.392324
H   -0.203792   0.450637   0.139889
H    0.466935  -1.669857  -2.021234
H    0.292848   0.086449  -2.341314
H    5.178915  -2.303272   0.898233
H    6.907128  -0.696582   1.724440
H    6.647699   1.742259   1.310304
H    4.657174   2.601660   0.065291
H   -2.266634  -0.560492   1.459858
H   -2.467939  -2.219525   0.802939
H   -4.672150  -1.252960   1.287384
H   -4.489595  -1.465484  -0.467515
*