! B3LYP 6-31G(d) Opt TightSCF
%pal
   nprocs 16
end

* xyz 0 1
O    2.667191   1.522983  -2.177705
C    3.092141   0.437234  -1.696188
C    2.302624  -0.815674  -1.980117
C    1.479397  -1.276756  -0.763130
C    0.410520  -0.254859  -0.301445
C   -0.282634  -0.732402   1.000581
C   -1.619237  -1.426134   0.702443
N   -2.591844  -0.521714   0.032412
C   -3.526671   0.084757   1.008681
C   -4.744707   0.730372   0.313858
C   -5.759369   1.275445   1.311436
C   -7.087200   1.291271   0.566475
C   -6.962907   0.281986  -0.574863
C   -5.536465  -0.255944  -0.538546
C   -1.954284   0.510206  -0.829233
C   -0.622405   0.032343  -1.419195
C    4.319135   0.445009  -0.850891
C    4.920790   1.686391  -0.499385
C    6.077138   1.732512   0.299375
C    6.616402   0.526946   0.734828
N    7.706103   0.348339   1.499244
C    7.832692  -0.989429   1.654363
C    6.816331  -1.662021   0.983546
C    6.051668  -0.672960   0.403843
C    4.907656  -0.758833  -0.385211
H    2.988714  -1.629094  -2.294836
H    1.628276  -0.645272  -2.846534
H    2.174972  -1.483621   0.078323
H    0.982960  -2.238956  -1.016395
H    0.928702   0.698799  -0.055981
H   -0.481793   0.144480   1.655262
H    0.370475  -1.420283   1.580599
H   -2.024107  -1.851732   1.647079
H   -1.431890  -2.297393   0.038403
H   -3.912012  -0.697675   1.700538
H   -3.002211   0.844698   1.630632
H   -4.411897   1.577063  -0.327226
H   -5.846725   0.602307   2.193600
H   -5.477407   2.293504   1.658278
H   -7.924132   1.023906   1.247920
H   -7.272482   2.307024   0.152454
H   -7.694069  -0.546572  -0.450613
H   -7.155159   0.784734  -1.548245
H   -5.538173  -1.265018  -0.068635
H   -5.109031  -0.334280  -1.561864
H   -2.636767   0.746478  -1.673223
H   -1.769517   1.453183  -0.265444
H   -0.815402  -0.882695  -2.022087
H   -0.225612   0.813263  -2.103672
H    4.494054   2.621647  -0.838895
H    6.531901   2.677589   0.566954
H    8.329849   1.086863   1.894262
H    8.622852  -1.458374   2.225688
H    6.661363  -2.731514   0.929957
H    4.502206  -1.732127  -0.621474
*