! B3LYP 6-31G(d) Opt TightSCF
%pal
   nprocs 16
end

* xyz 0 1
C    2.554080  -2.969729  -0.030569
C    1.852607  -1.647066  -0.168988
C    1.835480  -1.036150  -1.372647
C    1.082214   0.253643  -1.618912
C   -0.328739  -0.081765  -2.140617
C   -1.280142  -0.528649  -1.051655
N   -2.473167  -1.083511  -1.417366
C   -3.386327  -1.499831  -0.498173
O   -4.474086  -2.011138  -0.876265
C   -3.119331  -1.365909   0.862953
C   -1.917327  -0.794493   1.271326
C   -0.986337  -0.335092   0.323056
C    0.363123   0.231170   0.784302
C    1.309554  -0.969101   1.077773
N    0.202210   1.024405   2.029771
C   -0.531486   2.284059   1.826509
C    0.176624   3.180341   0.807764
C    0.303635   2.448489  -0.524174
C    1.021733   1.095621  -0.327290
H    2.042741  -3.731480  -0.656134
H    2.545643  -3.316254   1.024466
H    3.610530  -2.874592  -0.359962
H    2.277947  -1.534504  -2.231528
H    1.626692   0.825657  -2.402021
H   -0.260341  -0.875976  -2.916748
H   -0.760220   0.807071  -2.647237
H   -2.694853  -1.197762  -2.433108
H   -3.834933  -1.706746   1.601151
H   -1.711902  -0.713825   2.331185
H    0.784812  -1.718859   1.709970
H    2.189347  -0.619631   1.660559
H    1.144221   1.268145   2.418859
H   -1.572339   2.076508   1.495905
H   -0.599013   2.823830   2.795563
H   -0.409775   4.113360   0.663934
H    1.185010   3.458726   1.185235
H    0.880659   3.077898  -1.235715
H   -0.717122   2.311610  -0.937933
H    2.068578   1.331527  -0.023242
*