! B3LYP 6-31G(d) Opt TightSCF
%pal
   nprocs 16
end

* xyz 0 1
O   -3.037358   2.127536  -2.145631
C   -3.636529   1.510872  -1.222868
C   -5.107931   1.745462  -1.035123
C   -5.807199   0.607940  -0.334067
C   -7.208810   0.534212  -0.396424
C   -7.897692  -0.464374   0.295061
C   -7.196445  -1.390921   1.066862
C   -5.804028  -1.322231   1.149766
C   -5.097996  -0.323278   0.454152
C   -3.623432  -0.257002   0.521859
O   -2.995910  -1.018247   1.309156
N   -2.902584   0.655907  -0.326130
C   -1.433645   0.618654  -0.375503
C   -0.967378  -0.450778  -1.379917
C    0.567360  -0.580392  -1.537587
C    1.239003  -1.200256  -0.290533
C    2.754213  -0.959737  -0.323518
N    3.113160   0.486017  -0.334160
C    3.596907   0.948352   0.982860
C    4.999045   0.456623   1.231182
C    5.268481  -0.445958   2.274035
C    6.572653  -0.901864   2.490692
C    7.614697  -0.460699   1.670407
C    7.354456   0.437318   0.631637
C    6.051855   0.895526   0.411325
C    2.037832   1.378181  -0.831602
C    1.255176   0.735649  -1.983422
H   -5.574730   1.906163  -2.031706
H   -5.243580   2.670571  -0.435969
H   -7.769232   1.256052  -0.977990
H   -8.977329  -0.515638   0.237608
H   -7.732679  -2.162920   1.603573
H   -5.280558  -2.052927   1.753577
H   -1.034460   0.411479   0.637781
H   -1.045748   1.618136  -0.662492
H   -1.402836  -0.213643  -2.375329
H   -1.379818  -1.437402  -1.074838
H    0.721007  -1.308156  -2.366932
H    0.843057  -0.766121   0.649468
H    1.037546  -2.293406  -0.264277
H    3.169896  -1.428816  -1.241294
H    3.217811  -1.498751   0.531951
H    2.901773   0.621663   1.789750
H    3.629471   2.061030   1.018779
H    4.471039  -0.799053   2.915974
H    6.775358  -1.597995   3.294303
H    8.623376  -0.814859   1.839450
H    8.162036   0.778023  -0.003337
H    5.861728   1.590131  -0.397720
H    1.329865   1.641776  -0.013447
H    2.494538   2.322351  -1.199678
H    1.973277   0.513981  -2.803994
H    0.521293   1.461009  -2.395721
*