! B3LYP 6-31G(d) Opt TightSCF
%pal
   nprocs 16
end

* xyz 0 1
C    6.667919  -0.885930  -0.108318
N    5.360490  -1.184679   0.462260
C    4.181330  -0.479797   0.063833
O    4.247726   0.408089  -0.830162
O    2.952541  -0.829631   0.638063
C    1.776435  -0.068638   0.564756
C    1.795420   1.346364   0.467365
C    0.594308   2.070921   0.406359
C   -0.606500   1.366932   0.455950
C   -0.638153   0.005234   0.570571
C    0.542153  -0.740174   0.632207
C   -2.058527  -0.478543   0.621988
C   -2.360514  -1.169821   1.963337
C   -2.433915  -1.349327  -0.575650
C   -3.727792  -0.741286  -1.087938
N   -3.690704   0.699472  -0.795400
C   -3.155317   1.442396  -1.953746
C   -2.883891   0.828169   0.443578
N   -1.904003   1.920505   0.395982
H    6.648726  -1.059003  -1.204942
H    6.935367   0.172099   0.096602
H    7.437161  -1.545405   0.345968
H    5.281232  -1.932452   1.187476
H    2.729398   1.890801   0.467317
H    0.601895   3.150392   0.329210
H    0.505765  -1.818289   0.722101
H   -3.434426  -1.449489   2.020902
H   -1.749689  -2.091728   2.069332
H   -2.125840  -0.491205   2.811763
H   -1.665114  -1.287456  -1.378334
H   -2.575161  -2.419337  -0.306944
H   -4.584295  -1.190760  -0.538831
H   -3.873746  -0.965259  -2.169034
H   -3.198812   2.534592  -1.760137
H   -2.108028   1.142552  -2.180292
H   -3.785032   1.259241  -2.850919
H   -3.571699   1.000090   1.300735
H   -2.126708   2.940358   0.362661
*